p cnf 26 20
-331 -4760
-333 -4183
-619 -802
-619 -1939
-763 -999
-802 -942
-942 -4221
-989 -2666
-999 -1173
-1071 -4183
-1071 -4760
-1249 -2227
-1939 -1992
-1939 -2471
-1944 -2457
-1944 -4246
-1969 -2227
-2167 -3612
-2666 -4317
-4183 -4760

